(set-option :produce-models true)
(set-logic QF_UF)
(declare-fun p70() Bool)
(declare-fun p56() Bool)
(declare-fun p83() Bool)
(declare-fun p36() Bool)
(declare-fun p37() Bool)
(declare-fun p55() Bool)
(declare-fun p64() Bool)
(declare-fun p30() Bool)
(declare-fun p58() Bool)
(declare-fun p60() Bool)
(declare-fun p79() Bool)
(declare-fun p51() Bool)
(declare-fun p17() Bool)
(declare-fun p80() Bool)
(declare-fun p48() Bool)
(declare-fun p19() Bool)
(declare-fun p65() Bool)
(declare-fun p39() Bool)
(declare-fun p32() Bool)
(declare-fun p87() Bool)
(declare-fun p18() Bool)
(declare-fun p10() Bool)
(declare-fun p59() Bool)
(declare-fun p44() Bool)
(declare-fun p43() Bool)
(declare-fun p68() Bool)
(declare-fun p86() Bool)
(declare-fun p2() Bool)
(declare-fun p61() Bool)
(declare-fun p46() Bool)
(declare-fun p63() Bool)
(declare-fun p28() Bool)
(declare-fun p49() Bool)
(declare-fun p3() Bool)
(declare-fun p8() Bool)
(declare-fun p52() Bool)
(declare-fun p13() Bool)
(declare-fun p21() Bool)
(declare-fun p73() Bool)
(declare-fun p33() Bool)
(declare-fun p85() Bool)
(declare-fun p40() Bool)
(declare-fun p74() Bool)
(declare-fun p9() Bool)
(declare-fun p42() Bool)
(declare-fun p88() Bool)
(declare-fun p4() Bool)
(declare-fun p29() Bool)
(declare-fun p54() Bool)
(declare-fun p0() Bool)
(declare-fun p6() Bool)
(declare-fun p1() Bool)
(declare-fun p35() Bool)
(declare-fun p84() Bool)
(declare-fun p5() Bool)
(declare-fun p67() Bool)
(declare-fun p69() Bool)
(declare-fun p14() Bool)
(declare-fun p62() Bool)
(declare-fun p27() Bool)
(declare-fun p57() Bool)
(declare-fun p78() Bool)
(declare-fun p53() Bool)
(declare-fun p89() Bool)
(declare-fun p76() Bool)
(declare-fun p66() Bool)
(declare-fun p41() Bool)
(declare-fun p71() Bool)
(declare-fun p24() Bool)
(declare-fun p20() Bool)
(declare-fun p7() Bool)
(declare-fun p31() Bool)
(declare-fun p25() Bool)
(declare-fun p22() Bool)
(declare-fun p15() Bool)
(declare-fun p16() Bool)
(declare-fun p50() Bool)
(declare-fun p81() Bool)
(declare-fun p12() Bool)
(declare-fun p38() Bool)
(declare-fun p45() Bool)
(declare-fun p47() Bool)
(declare-fun p11() Bool)
(declare-fun p75() Bool)
(declare-fun p34() Bool)
(declare-fun p23() Bool)
(declare-fun p77() Bool)
(declare-fun p72() Bool)
(declare-fun p26() Bool)
(declare-fun p82() Bool)
(assert
(and (or (not p70) (not p56) p83) (or (not p36) p37 (not p55)) (or p64 (not p30) p58) (or (not p60) p79 (not p51)) (or p37 (not p17) p79) (or (not p80) p48 (not p19)) (or p65 (not p39) p32) (or p87 p18 p32) (or (not p10) p59 p37) (or (not p44) p43 (not p37)) (or (not p68) p86 p2) (or p61 (not p46) p63) (or (not p28) (not p49) p3) (or p37 (not p8) (not p19)) (or (not p52) p19 p13) (or (not p30) (not p17) (not p13)) (or (not p70) (not p80) p80) (or (not p21) p73 p49) (or (not p80) p33 p85) (or (not p40) (not p74) (not p9)) (or (not p42) (not p88) (not p4)) (or p29 (not p13) p33) (or (not p54) p48 p0) (or p6 (not p46) p42) (or p1 (not p35) p84) (or p73 (not p5) p19) (or p67 (not p40) (not p69)) (or (not p54) (not p88) p14) (or p87 (not p62) (not p3)) (or (not p27) (not p88) (not p30)) (or (not p57) p3 (not p78)) (or p67 p53 p56) (or (not p89) p76 (not p67)) (or p66 p41 p14) (or p84 (not p71) p24) (or p18 (not p29) p58) (or p2 p56 p76) (or (not p44) (not p20) p42) (or (not p71) p30 (not p7)) (or p31 (not p43) (not p51)) (or (not p68) (not p65) p63) (or p19 (not p17) (not p41)) (or p52 p4 p73) (or (not p25) p9 (not p54)) (or p37 (not p40) p48) (or (not p87) (not p40) (not p46)) (or p35 p48 (not p22)) (or (not p71) (not p67) p8) (or p69 p15 p17) (or (not p14) (not p52) p60) (or (not p13) (not p61) (not p10)) (or (not p15) p35 (not p65)) (or p87 (not p41) (not p16)) (or (not p30) p67 p46) (or (not p33) (not p27) p52) (or p36 p4 (not p85)) (or (not p89) p20 (not p43)) (or (not p3) p50 (not p81)) (or p35 p42 (not p44)) (or (not p14) (not p52) (not p18)) (or (not p86) (not p4) (not p83)) (or (not p37) p12 p46) (or p66 (not p38) p36) (or (not p65) p51 (not p67)) (or p51 p74 p45) (or p47 (not p38) (not p37)) (or (not p58) p78 p31) (or (not p17) (not p76) p11) (or p22 p75 (not p21)) (or p37 p57 (not p48)) (or p44 p43 (not p17)) (or p70 p45 (not p21)) (or p14 (not p69) p48) (or (not p3) (not p49) (not p86)) (or (not p17) (not p87) p1) (or p37 p41 p1) (or p62 p29 p50) (or (not p25) p59 p89) (or (not p87) p33 p5) (or (not p52) p43 p6) (or (not p87) p73 p75) (or p56 (not p20) p87) (or p24 (not p60) p53) (or (not p62) (not p27) p74) (or (not p83) p43 p19) (or (not p88) p55 p27) (or (not p47) (not p34) (not p51)) (or p73 p16 p10) (or (not p41) (not p27) (not p18)) (or p35 (not p21) (not p13)) (or p69 (not p79) p28) (or p63 p16 (not p17)) (or (not p36) p71 (not p14)) (or p59 (not p36) p35) (or p86 (not p75) (not p86)) (or (not p19) (not p46) (not p52)) (or p73 p23 (not p40)) (or (not p23) (not p63) (not p63)) (or (not p30) (not p17) p18) (or (not p19) p57 (not p66)) (or p83 (not p20) p20) (or p45 (not p47) p18) (or (not p77) p10 (not p51)) (or p10 p48 (not p47)) (or (not p41) p65 (not p1)) (or (not p54) p59 p5) (or p77 (not p40) p31) (or p79 p8 (not p29)) (or p30 p46 (not p31)) (or (not p5) p74 (not p13)) (or p53 (not p39) p67) (or (not p66) p78 p29) (or p70 (not p64) p34) (or p52 (not p71) (not p70)) (or p25 (not p36) (not p71)) (or (not p77) (not p1) p24) (or (not p22) p7 (not p48)) (or p64 (not p77) (not p72)) (or (not p51) p7 (not p4)) (or p45 p33 (not p23)) (or p1 (not p7) p45) (or (not p34) p47 p45) (or (not p19) (not p64) p64) (or (not p26) (not p82) p82) (or p65 (not p11) p63) (or p52 p1 p18) (or p78 (not p61) p79) (or (not p62) (not p3) p7) (or (not p13) p63 p84) (or (not p67) p74 (not p80)) (or p17 (not p40) (not p26)) (or (not p74) (not p49) p89) (or (not p34) (not p78) (not p52)) (or p53 (not p57) (not p35)) (or (not p69) (not p32) p73) (or p70 p84 (not p35)) (or p87 (not p66) (not p50)) (or (not p12) (not p44) p57) (or (not p42) (not p62) p18) (or (not p17) (not p89) p39) (or (not p55) (not p75) p60) (or p80 p63 (not p88)) (or (not p46) p30 (not p68)) (or (not p80) p56 p20) (or p50 (not p21) p10) (or p8 p79 p46) (or (not p63) (not p4) p62) (or p12 p8 p38) (or p46 p83 p55) (or p48 (not p32) p42) (or p61 (not p42) p59) (or p75 (not p75) p72) (or p37 p10 (not p17)) (or p89 p10 p37) (or (not p29) p80 (not p43)) (or (not p62) p43 p71) (or (not p83) p89 p68) (or p32 (not p51) (not p83)) (or (not p54) (not p39) p89) (or p79 p42 p77) (or (not p65) p60 p7) (or (not p18) (not p46) p26) (or (not p43) (not p72) (not p24)) (or (not p32) p20 (not p35)) (or (not p13) (not p23) p76) (or (not p35) (not p71) (not p80)) (or p35 p14 (not p18)) (or (not p11) (not p57) (not p17)) (or p2 (not p21) (not p23)) (or (not p52) p65 (not p53)) (or (not p16) (not p87) p8) (or (not p29) p75 p24) (or p4 (not p84) (not p28)) (or (not p80) (not p14) p47) (or (not p45) (not p65) (not p13)) (or (not p59) p15 p57) (or (not p74) (not p41) p24) (or p0 p16 p26) (or (not p48) (not p14) (not p77)) (or (not p43) (not p57) (not p3)) (or p74 p46 (not p53)) (or p70 p31 p72) (or p55 (not p45) p71) (or p68 (not p17) (not p73)) (or (not p71) p71 p79) (or p3 p83 (not p51)) (or p28 p27 (not p16)) (or (not p39) p72 (not p54)) (or (not p17) (not p50) (not p34)) (or (not p32) p36 (not p11)) (or p63 (not p9) p31) (or (not p10) p79 p10) (or p34 p59 (not p40)) (or (not p14) p44 (not p39)) (or p20 (not p80) (not p81)) (or (not p21) (not p23) p87) (or p31 (not p9) (not p46)) (or p57 (not p73) (not p30)) (or (not p34) p46 (not p69)) (or (not p43) p73 p60) (or p61 p23 p43) (or (not p44) p68 p15) (or p62 p59 (not p2)) (or p20 p20 p80) (or p79 (not p19) p45) (or p79 p49 p7) (or p36 (not p31) p87) (or p56 (not p53) (not p18)) (or p74 (not p61) (not p64)) (or p8 p9 p37) (or p36 p17 (not p44)) (or p37 (not p82) (not p17)) (or (not p40) p14 p67) (or p76 (not p69) p53) (or p78 (not p37) p43) (or (not p63) (not p87) p29) (or (not p87) p25 p9) (or (not p11) p1 p80) (or p86 (not p64) (not p7)) (or p22 p68 (not p67)) (or p84 (not p3) (not p40)) (or p2 (not p13) (not p78)) (or (not p25) p63 p5) (or (not p39) p50 p52) (or p55 p27 (not p22)) (or (not p80) p6 (not p78)) (or (not p38) p88 p14) (or (not p64) p37 (not p41)) (or p7 (not p42) p69) (or (not p20) p58 p69) (or (not p27) (not p10) (not p60)) (or (not p69) p18 p56) (or (not p57) (not p18) p84) (or (not p63) p36 (not p88)) (or (not p53) p47 p15) (or (not p71) p12 (not p82)) (or (not p46) p32 p49) (or (not p33) p81 p52) (or p88 (not p11) (not p56)) (or (not p87) (not p28) p41) (or (not p21) (not p71) (not p52)) (or p29 (not p84) (not p37)) (or (not p41) (not p66) p72) (or p31 p84 (not p21)) (or p18 (not p63) p1) (or (not p6) (not p8) p86) (or (not p14) p31 p87) (or (not p89) (not p12) p13) (or p54 p35 p63) (or p59 (not p46) (not p6)) (or (not p18) (not p64) (not p22)) (or p2 p28 p53) (or (not p72) p11 p57) (or (not p37) (not p30) (not p21)) (or (not p8) (not p22) (not p51)) (or (not p25) p69 (not p84)) (or (not p28) (not p21) p19) (or p74 (not p33) (not p81)) (or (not p67) p55 p69) (or (not p70) p55 (not p80)) (or p32 p69 p13) (or p22 (not p0) p8) (or p59 (not p48) p14) (or p10 p17 (not p40)) (or p18 (not p29) (not p44)) (or (not p86) (not p74) (not p76)) (or (not p49) (not p60) (not p62)) (or (not p45) (not p53) p23) (or p44 (not p61) (not p15)) (or (not p48) p85 (not p4)) (or (not p25) p80 (not p27)) (or p48 (not p83) p30) (or (not p62) (not p48) p5) (or (not p54) p77 p67) (or p28 (not p73) (not p28)) (or p6 (not p73) p69) (or p88 p75 p69) (or (not p51) (not p2) p55) (or p47 (not p23) p76) (or (not p8) (not p17) p53) (or p25 (not p28) p52) (or p4 (not p49) (not p27)) (or p42 (not p15) (not p66)) (or p85 (not p57) (not p64)) (or p17 p24 p66) (or (not p15) p55 p18) (or p59 p16 p61) (or p9 p75 (not p4)) (or (not p48) (not p2) p73) (or (not p9) (not p12) (not p1)) (or p16 p26 (not p17)) (or p73 p20 p17) (or p85 p54 p86) (or p67 (not p65) p26) (or (not p2) p17 (not p87)) (or p87 p72 p80) (or (not p45) p78 (not p13)) (or (not p34) (not p48) (not p31)) (or (not p7) p8 (not p78)) (or (not p80) p76 (not p9)) (or p16 p76 (not p34)) (or p5 p14 (not p58)) (or (not p8) (not p21) (not p83)) (or p10 (not p46) (not p22)) (or (not p89) p24 p10) (or p55 (not p17) (not p29)) (or (not p3) (not p67) p55) (or (not p32) (not p25) p14) (or p49 p54 (not p20)) (or p75 (not p59) p49) (or p8 p71 p40) (or p89 (not p0) p67) (or p6 p31 p55) (or (not p0) (not p59) (not p25)) (or (not p68) p29 (not p20)) (or (not p79) p78 p26) (or p63 (not p86) (not p26)) (or (not p69) p37 p83) (or (not p57) (not p44) p83) (or (not p48) p38 (not p86)) (or (not p2) (not p17) p74) (or (not p7) (not p88) p58) (or (not p13) p3 (not p8)) (or (not p53) p66 (not p26)) (or p67 (not p16) p36) (or p1 (not p31) (not p31)) (or (not p39) (not p38) p49) (or (not p82) p25 (not p42)) (or p31 (not p57) p41) (or (not p56) (not p39) (not p17)) (or p22 p18 p2) (or p46 (not p82) p45) (or (not p6) (not p3) p11) (or p28 p8 p84) (or (not p2) (not p37) p30) (or (not p81) p53 (not p30)) (or p59 (not p60) p77) (or p72 (not p9) p19) (or (not p51) p74 (not p30)) (or (not p45) p78 p75) (or (not p44) p26 (not p31)) (or p68 p69 (not p13)) (or p26 (not p84) (not p19)) (or p35 (not p29) (not p73)) (or (not p39) (not p41) (not p36)) (or (not p47) (not p38) p38) (or p57 (not p53) (not p37)) (or (not p15) p27 (not p68)) (or p19 p33 p62) (or p86 (not p74) p63) (or (not p81) p38 p71) (or (not p87) p14 (not p59)) (or p32 (not p45) p13) (or p49 (not p0) p44) (or (not p71) p50 (not p33)) (or (not p34) (not p82) (not p66)) (or (not p8) p3 p81) (or (not p68) (not p87) p44) (or (not p46) p71 (not p68)) (or p47 p7 (not p20)) (or p60 (not p81) p10) (or (not p74) p56 p30) (or p4 (not p73) p54) (or (not p45) p27 p50) (or p20 (not p2) (not p40)) (or p57 (not p59) (not p31)) (or (not p6) (not p77) p76) (or p69 (not p22) p72) (or p77 (not p22) p84) (or (not p59) (not p82) (not p17)) (or p30 p76 p34) (or p71 p61 (not p23)) (or p65 p57 p42) (or (not p58) (not p85) p0) (or p60 (not p84) (not p7)) (or (not p72) p33 (not p27)) (or p83 (not p38) (not p41)) (or p85 (not p29) (not p89)) (or (not p85) p30 p55) (or (not p88) p75 (not p87)) (or (not p78) p56 p1) (or (not p50) (not p44) p64) (or p76 p70 (not p45)) (or p48 (not p73) p5) (or p46 (not p70) p17) (or p32 p0 p52) (or (not p46) (not p62) (not p73)) (or p66 p15 p14) (or p24 p44 (not p89)) (or p46 p5 p5) (or (not p16) (not p66) p29) (or (not p50) p29 p44) (or p88 p28 p74) (or p1 p39 p65) (or (not p68) p23 (not p78)) (or p82 p15 (not p42)) (or (not p71) p12 (not p41)) (or p0 (not p49) (not p68)) (or p88 p80 p15) (or p52 p19 (not p50)) (or (not p13) (not p7) p22) (or (not p63) (not p57) p73) (or p52 (not p61) (not p70)) (or p24 p32 p44) (or p51 (not p67) (not p50)) (or (not p73) p54 (not p89)) (or p87 (not p23) (not p22)) (or (not p62) (not p57) p78) (or p73 p81 p58) (or p34 p51 (not p16)) (or (not p19) (not p4) p71) (or (not p7) (not p65) (not p14)) (or (not p58) p6 (not p85)) (or p61 (not p50) p33) (or (not p61) p33 (not p1)) (or (not p4) (not p89) (not p82)) (or p1 (not p26) p40) (or (not p62) (not p26) (not p21)) (or p8 p48 (not p28)) (or p72 p80 p3) (or p77 p17 (not p54)) (or p41 p55 p67) (or p47 (not p82) (not p0)) (or p8 p7 (not p13)) (or p30 p30 (not p68)) (or p30 p69 (not p36)) (or p18 p56 (not p50)) (or p36 (not p20) p8) (or (not p1) (not p23) p27) (or p55 (not p15) (not p87)) (or (not p89) p70 p69) (or p15 (not p20) (not p78)) (or p51 (not p64) (not p63)) (or (not p19) p58 p22) (or (not p56) (not p77) (not p87)) (or (not p13) (not p18) p22) (or (not p62) (not p28) p16) (or (not p46) (not p27) p5) (or (not p5) p0 (not p42)) (or (not p60) p43 p34) (or p46 p26 (not p86)) (or p15 p74 p76) (or (not p78) (not p74) p5) (or p63 (not p79) p60) (or (not p19) p21 (not p4)) (or p80 p20 p78) (or p29 (not p26) p79) (or (not p9) (not p33) (not p81)))
)
(check-sat)
(get-model)
